problems/VanDerWaerdenNumbers/VanDerWaerden-models/noch/O2/lingeling/model_2-k3l4n34-solution000001.eprime-solution
language ESSENCE' 1.0

letting p_PartitionAsSet_ExplicitR6_ExplicitVarSizeWithDummy be
        [[1, 2, 3, 5, 6, 12, 13, 15, 16, 17, 21, 22, 23, 35, 35, 35, 35, 35, 35, 35, 35, 35, 35, 35, 35, 35, 35, 35, 35,
          35, 35, 35, 35, 35; int(1..34)],
         [4, 7, 8, 9, 14, 27, 28, 32, 34, 35, 35, 35, 35, 35, 35, 35, 35, 35, 35, 35, 35, 35, 35, 35, 35, 35, 35, 35,
          35, 35, 35, 35, 35, 35; int(1..34)],
         [10, 11, 18, 19, 20, 24, 25, 26, 29, 30, 31, 33, 35, 35, 35, 35, 35, 35, 35, 35, 35, 35, 35, 35, 35, 35, 35,
          35, 35, 35, 35, 35, 35, 35; int(1..34)]; int(1..3)]
