problems/VanDerWaerdenNumbers/VanDerWaerden-models/noch/O2/lingeling/model_2-k3l4n34-solution000001.solution
language Essence 1.3

letting p be
        partition({1, 2, 3, 5, 6, 12, 13, 15, 16, 17, 21, 22, 23}, {4, 7, 8, 9, 14, 27, 28, 32, 34},
                  {10, 11, 18, 19, 20, 24, 25, 26, 29, 30, 31, 33})
